p cnf 150 300
1 -150 -131 0
1 -150 -127 0
1 -149 -122 0
1 -149 131 0
1 -148 -67 0
1 -148 115 0
1 -147 -92 0
1 -147 -74 0
1 -146 -94 0
1 -146 65 0
1 -145 -37 0
1 -145 46 0
1 -144 -57 0
1 -144 57 0
1 -143 24 0
1 -143 98 0
1 -142 -40 0
1 -142 118 0
1 -141 -114 0
1 -141 -75 0
1 -140 18 0
1 -140 59 0
1 -139 -81 0
1 -139 49 0
1 -138 -68 0
1 -138 1 0
1 -137 -86 0
1 -137 -77 0
1 -136 -112 0
1 -136 22 0
1 -135 -48 0
1 -135 45 0
1 -134 16 0
1 -134 121 0
1 -133 -93 0
1 -133 -76 0
1 -132 -97 0
1 -132 -12 0
1 -131 73 0
1 -130 -123 0
1 -130 107 0
1 -129 -126 0
1 -129 -9 0
1 -128 13 0
1 -128 36 0
1 -127 98 0
1 -126 -33 0
1 -125 -107 0
1 -125 -24 0
1 -124 81 0
1 -124 101 0
1 -123 44 0
1 -122 -70 0
1 -121 -70 0
1 -121 27 0
1 -120 -109 0
1 -120 -41 0
1 -119 -54 0
1 -119 93 0
1 -118 -8 0
1 -118 91 0
1 -117 -52 0
1 -117 48 0
1 -116 -82 0
1 -116 87 0
1 -115 -106 0
1 -115 128 0
1 -114 -101 0
1 -113 -53 0
1 -113 53 0
1 -112 71 0
1 -111 -25 0
1 -111 99 0
1 -110 -90 0
1 -110 -6 0
1 -109 15 0
1 -108 -69 0
1 -108 -11 0
1 -107 133 0
1 -106 130 0
1 -105 57 0
1 -105 92 0
1 -104 -69 0
1 -104 25 0
1 -103 21 0
1 -103 30 0
1 -102 86 0
1 -102 114 0
1 -101 10 0
1 -100 59 0
1 -100 84 0
1 -99 -26 0
1 -99 140 0
1 -98 22 0
1 -98 34 0
1 -97 -2 0
1 -96 -45 0
1 -96 134 0
1 -95 101 0
1 -95 131 0
1 -94 93 0
1 -93 103 0
1 -92 -13 0
1 -91 -11 0
1 -91 105 0
1 -90 36 0
1 -89 -71 0
1 -89 94 0
1 -88 -53 0
1 -88 47 0
1 -87 69 0
1 -87 150 0
1 -86 -71 0
1 -85 -54 0
1 -85 -50 0
1 -84 63 0
1 -84 123 0
1 -83 -22 0
1 -83 -5 0
1 -82 61 0
1 -81 -77 0
1 -80 105 0
1 -80 149 0
1 -79 20 0
1 -79 114 0
1 -78 94 0
1 -78 113 0
1 -76 -14 0
1 -75 -1 0
1 -74 -12 0
1 -73 -68 0
1 -73 13 0
1 -72 -62 0
1 -72 -16 0
1 -67 68 0
1 -66 116 0
1 -66 122 0
1 -65 -15 0
1 -65 72 0
1 -64 -34 0
1 -64 -26 0
1 -63 -32 0
1 -63 100 0
1 -62 -59 0
1 -61 -50 0
1 -61 37 0
1 -60 17 0
1 -60 127 0
1 -59 112 0
1 -58 -28 0
1 -58 147 0
1 -57 42 0
1 -56 49 0
1 -56 95 0
1 -55 -9 0
1 -55 137 0
1 -52 85 0
1 -51 -36 0
1 -51 110 0
1 -49 54 0
1 -49 148 0
1 -48 -21 0
1 -47 -13 0
1 -47 41 0
1 -46 110 0
1 -46 137 0
1 -45 14 0
1 -44 23 0
1 -44 35 0
1 -43 58 0
1 -43 103 0
1 -42 31 0
1 -42 45 0
1 -41 108 0
1 -40 44 0
1 -39 -4 0
1 -39 124 0
1 -38 62 0
1 -38 143 0
1 -37 138 0
1 -36 3 0
1 -35 -34 0
1 -35 10 0
1 -33 128 0
1 -32 -20 0
1 -31 33 0
1 -31 52 0
1 -30 -14 0
1 -30 38 0
1 -29 -18 0
1 -29 108 0
1 -28 144 0
1 -27 32 0
1 -27 79 0
1 -25 83 0
1 -24 12 0
1 -23 51 0
1 -23 100 0
1 -22 141 0
1 -21 62 0
1 -20 65 0
1 -19 102 0
1 -19 107 0
1 -18 14 0
1 -17 15 0
1 -17 125 0
1 -16 149 0
1 -15 120 0
1 -10 -6 0
1 -10 145 0
1 -8 -7 0
1 -7 124 0
1 -5 46 0
1 -4 66 0
1 -3 52 0
1 -3 140 0
1 -2 43 0
1 -1 63 0
1 1 129 0
1 2 76 0
1 2 82 0
1 3 6 0
1 4 35 0
1 4 83 0
1 5 17 0
1 5 55 0
1 6 67 0
1 7 33 0
1 7 144 0
1 8 29 0
1 8 40 0
1 9 126 0
1 9 132 0
1 11 106 0
1 11 136 0
1 12 82 0
1 16 81 0
1 18 88 0
1 19 28 0
1 19 66 0
1 20 70 0
1 21 89 0
1 23 117 0
1 24 146 0
1 25 139 0
1 26 48 0
1 26 126 0
1 27 30 0
1 28 95 0
1 29 72 0
1 31 130 0
1 32 80 0
1 34 129 0
1 37 106 0
1 38 97 0
1 39 56 0
1 39 73 0
1 40 53 0
1 41 123 0
1 42 122 0
1 43 79 0
1 47 69 0
1 50 77 0
1 50 135 0
1 51 54 0
1 55 116 0
1 56 146 0
1 58 135 0
1 60 90 0
1 60 92 0
1 61 97 0
1 64 96 0
1 64 121 0
1 67 80 0
1 68 75 0
1 70 87 0
1 71 112 0
1 74 115 0
1 74 147 0
1 75 96 0
1 76 109 0
1 77 102 0
1 78 89 0
1 78 111 0
1 84 119 0
1 85 90 0
1 86 134 0
1 88 127 0
1 91 113 0
1 99 136 0
1 104 120 0
1 104 138 0
1 109 142 0
1 111 125 0
1 117 141 0
1 118 142 0
1 119 148 0
1 132 150 0
1 133 145 0
1 139 143 0
